
  32    4
  10   10   10   10

   0   0   0   0   0   1 2 
   2   0   1   1   1   1 3 
   3   1   3   3   0   1 4 
   6   3   0   2   4   1 5 
   6   0   5   2   4   1 6 
   5   1   2   0   5   1 7 
  10   4   3   3   0   2 31 8 
   8   2   5   9   0   1 9 
   3   6   0   6   3   2 30 10 
   7   6   6   5   0   1 11 
   4   1   2   0   4   1 12 
  10   0   5   4   2   1 13 
   7   2   4   0   5   1 14 
   1   3   3   0   6   1 15 
   9   8   3   0   4   1 16 
   8   8   5   4   0   1 17 
   4  10   0   6   5   1 18 
   4   0   2   3   5   2 29 19 
   4   3   0   6   4   1 20 
   2   2   4   9   0   1 21 
   6   1   6   0   4   1 22 
   4  10   4   4   0   1 23 
   7   5   5   0   3   1 24 
   3   0   6   2   4   1 25 
   6   5   0   2   6   1 26 
   6   3   3   3   0   1 27 
   2   5   7   3   0   1 28 
   9   0   4   3   5   1 32
   5   1   5   0   4   1 32
   7   2   2   5   0   1 32
   7   0   5   3   2   1 32
   0   0   0   0   0   0 
